NAME: cities_5_0
TYPE: TSP
COMMENT: Generated from CSV
DIMENSION: 5
EDGE_WEIGHT_TYPE: EUC_2D
NODE_COORD_SECTION
1 38.12975394701076 63.35035551253368
2 64.9133547668222 2.391372128345337
3 25.83635495948309 24.20424037281069
4 84.90105714636462 64.54707164395747
5 28.29797840848385 81.79179803415816
EOF
